Cost: 523
0-46-8-52-34-0
0-28-33-6-0
0-17-40-39-0
0-29-30-2-0
0-27-13-15-45-0
0-9-44-3-0
0-22-1-23-51-0
0-12-10-26-0
0-11-14-19-0
Cost: 523
0-46-8-52-34-0
0-28-33-6-0
0-17-40-39-0
0-29-30-2-0
0-27-13-15-45-0
0-9-44-3-0
0-22-1-23-51-0
0-12-10-26-0
0-11-14-19-0
Cost: 523
0-46-8-52-34-0
0-28-33-6-0
0-17-40-39-0
0-29-30-2-0
0-27-13-15-45-0
0-9-44-3-0
0-22-1-23-51-0
0-12-10-26-0
0-11-14-19-0
Cost: 523
0-46-8-52-34-0
0-28-33-6-0
0-17-40-39-0
0-29-30-2-0
0-27-13-15-45-0
0-9-44-3-0
0-22-1-23-51-0
0-12-10-26-0
0-11-14-19-0
Cost: 523
0-46-8-52-34-0
0-28-33-6-0
0-17-40-39-0
0-29-30-2-0
0-27-13-15-45-0
0-9-44-3-0
0-22-1-23-51-0
0-12-10-26-0
0-11-14-19-0
Cost: 523
0-46-8-52-34-0
0-28-33-6-0
0-17-40-39-0
0-29-30-2-0
0-27-13-15-45-0
0-9-44-3-0
0-22-1-23-51-0
0-12-10-26-0
0-11-14-19-0
Cost: 523
0-46-8-52-34-0
0-28-33-6-0
0-17-40-39-0
0-29-30-2-0
0-27-13-15-45-0
0-9-44-3-0
0-22-1-23-51-0
0-12-10-26-0
0-11-14-19-0
Cost: 523
0-46-8-52-34-0
0-28-33-6-0
0-17-40-39-0
0-29-30-2-0
0-27-13-15-45-0
0-9-44-3-0
0-22-1-23-51-0
0-12-10-26-0
0-11-14-19-0
Cost: 523
0-46-8-52-34-0
0-28-33-6-0
0-17-40-39-0
0-29-30-2-0
0-27-13-15-45-0
0-9-44-3-0
0-22-1-23-51-0
0-12-10-26-0
0-11-14-19-0
Cost: 523
0-46-8-52-34-0
0-28-33-6-0
0-17-40-39-0
0-29-30-2-0
0-27-13-15-45-0
0-9-44-3-0
0-22-1-23-51-0
0-12-10-26-0
0-11-14-19-0
Cost: 523
0-46-8-52-34-0
0-28-33-6-0
0-17-40-39-0
0-29-30-2-0
0-27-13-15-45-0
0-9-44-3-0
0-22-1-23-51-0
0-12-10-26-0
0-11-14-19-0
Cost: 523
0-46-8-52-34-0
0-28-33-6-0
0-17-40-39-0
0-29-30-2-0
0-27-13-15-45-0
0-9-44-3-0
0-22-1-23-51-0
0-12-10-26-0
0-11-14-19-0
Cost: 523
0-46-8-52-34-0
0-28-33-6-0
0-17-40-39-0
0-29-30-2-0
0-27-13-15-45-0
0-9-44-3-0
0-22-1-23-51-0
0-12-10-26-0
0-11-14-19-0
Cost: 523
0-46-8-52-34-0
0-28-33-6-0
0-17-40-39-0
0-29-30-2-0
0-27-13-15-45-0
0-9-44-3-0
0-22-1-23-51-0
0-12-10-26-0
0-11-14-19-0
Cost: 523
0-46-8-52-34-0
0-28-33-6-0
0-17-40-39-0
0-29-30-2-0
0-27-13-15-45-0
0-9-44-3-0
0-22-1-23-51-0
0-12-10-26-0
0-11-14-19-0
Cost: 523
0-46-8-52-34-0
0-28-33-6-0
0-17-40-39-0
0-29-30-2-0
0-27-13-15-45-0
0-9-44-3-0
0-22-1-23-51-0
0-12-10-26-0
0-11-14-19-0
Cost: 523
0-46-8-52-34-0
0-28-33-6-0
0-17-40-39-0
0-29-30-2-0
0-27-13-15-45-0
0-9-44-3-0
0-22-1-23-51-0
0-12-10-26-0
0-11-14-19-0
Cost: 523
0-46-8-52-34-0
0-28-33-6-0
0-17-40-39-0
0-29-30-2-0
0-27-13-15-45-0
0-9-44-3-0
0-22-1-23-51-0
0-12-10-26-0
0-11-14-19-0
Cost: 523
0-46-8-52-34-0
0-28-33-6-0
0-17-40-39-0
0-29-30-2-0
0-27-13-15-45-0
0-9-44-3-0
0-22-1-23-51-0
0-12-10-26-0
0-11-14-19-0
Cost: 523
0-46-8-52-34-0
0-28-33-6-0
0-17-40-39-0
0-29-30-2-0
0-27-13-15-45-0
0-9-44-3-0
0-22-1-23-51-0
0-12-10-26-0
0-11-14-19-0
Cost: 523
0-46-8-52-34-0
0-28-33-6-0
0-17-40-39-0
0-29-30-2-0
0-27-13-15-45-0
0-9-44-3-0
0-22-1-23-51-0
0-12-10-26-0
0-11-14-19-0
Cost: 523
0-46-8-52-34-0
0-28-33-6-0
0-17-40-39-0
0-29-30-2-0
0-27-13-15-45-0
0-9-44-3-0
0-22-1-23-51-0
0-12-10-26-0
0-11-14-19-0
Cost: 523
0-3-44-9-0
0-12-10-26-0
0-22-1-23-51-0
0-2-30-29-0
0-39-40-17-0
0-28-33-6-0
0-27-13-15-45-0
0-11-14-19-0
0-46-8-52-34-0
Cost: 523
0-46-8-52-34-0
0-28-33-6-0
0-17-40-39-0
0-29-30-2-0
0-27-13-15-45-0
0-9-44-3-0
0-22-1-23-51-0
0-12-10-26-0
0-11-14-19-0
Cost: 523
0-46-8-52-34-0
0-28-33-6-0
0-17-40-39-0
0-29-30-2-0
0-27-13-15-45-0
0-9-44-3-0
0-22-1-23-51-0
0-12-10-26-0
0-11-14-19-0
Cost: 523
0-46-8-52-34-0
0-28-33-6-0
0-17-40-39-0
0-29-30-2-0
0-27-13-15-45-0
0-9-44-3-0
0-22-1-23-51-0
0-12-10-26-0
0-11-14-19-0
Cost: 0
Cost: 0
Cost: 544
0-8-19-13-15-0
0-30-2-6-0
0-45-27-52-34-0
0-3-44-9-0
0-40-39-12-0
0-22-1-23-51-0
0-17-10-26-0
0-14-11-46-0
0-29-28-33-0
Cost: 0
Cost: 0
